Features/ForMiniZinc/benchmark_puzzles/benchmarks4x4/65/puzzle7.dzn
S = 4;
start = [|0,0,0,11,0,0,0,9,0,13,0,0,0,16,1,0|
0,13,0,0,10,0,0,0,16,0,0,0,14,0,0,9|
0,0,5,0,0,14,0,0,15,2,6,0,0,0,4,12|
0,0,0,0,0,11,16,0,0,0,0,0,0,0,7,0|
8,10,0,0,0,16,12,0,2,0,5,0,0,0,0,0|
0,0,14,0,0,13,0,11,4,0,16,0,12,10,0,2|
0,2,11,5,8,3,0,0,0,0,12,0,0,6,0,0|
0,0,0,0,0,0,0,0,0,11,0,0,0,0,15,1|
0,9,7,0,0,0,13,0,0,0,0,0,0,0,0,0|
1,0,0,12,14,0,11,0,0,0,0,16,3,0,10,0|
0,0,13,0,9,0,4,7,0,0,0,0,15,5,0,0|
0,0,0,0,0,0,0,12,0,6,14,0,0,0,9,0|
0,0,4,13,12,0,1,6,0,0,0,15,0,0,0,0|
14,5,1,0,7,0,0,0,0,0,11,0,10,0,6,15|
10,0,16,0,0,0,0,0,8,12,0,6,0,0,0,7|
0,0,0,0,0,0,0,15,0,0,0,0,0,0,0,0|];